6 40 4 10
10 10 8 6 9 12 3 1 10 19 8 10 16 1 19 14 15 1 15 6 6 12 13 2 4 11 8 9 4 10 11 13 10 16 12 12 15 14 13 3 
0.78 2.95 1.23 6.1 3.02 0.04 1.6 7.04 1.07 3.94 4.21 6.02 4.02 1.92 2.37 6.88 1.3 4.28 2.32 0.39 3.5 1.91 5.19 3.74 1.69 6.34 3.88 6.83 7.01 6.29 2.75 0.09 4.63 2.65 6.98 6.49 4.85 5.81 2.05 5.66 
4.23 4.32 2.1 4.57 3.15 6.47 1.25 1.92 3.56 4.97 6.96 6.59 3.58 6.11 4.92 4.92 2.48 2.47 1.45 7.29 7.95 4.09 7.06 7.95 7.09 6.6 6.17 0.4 2.62 4.18 5.07 6.47 2.18 6.49 2.44 2.34 3.74 6.09 6.51 4.86 
6.76 3.45 1.46 6.42 4 5.65 2.75 1.74 6.55 2.75 7.52 5.24 4.65 2.06 6.3 4.5 3.66 0.01 0.64 5.09 3.58 2.19 6.1 4.02 3.61 6.53 5.34 2.84 7.26 2.24 1.95 4.84 7.12 1.1 0.16 4.92 1.87 3.1 6.25 7.31 
2.23 1.79 1.36 6.19 4.76 7.28 6.83 5.54 2.49 0.13 3.24 3.38 1.99 0.48 3.61 1.38 1.03 4.87 0.52 5.05 0.84 6.35 7.14 0.06 0.25 6.02 7.34 4.15 7.37 6.57 6.35 5.51 7.33 0.2 4.1 2.49 2.96 6.55 6.95 2.2 
4 4 4 4 4 4 4 4 4 4 4 4 4 4 4 4 4 4 4 4 4 4 4 4 4 4 4 4 4 4 4 4 4 4 4 4 4 4 4 4 
5.96 4.66 1.53 5.52 5.15 5.41 6.94 6.53 0.38 1 4.86 3.88 3.36 3.51 6.47 2.71 7.12 2.79 2.02 3.18 6.62 6.95 4.2 0.67 4.51 2.77 6.73 4.32 4.63 0.83 2.98 3.26 1.44 5.21 0.79 2.75 4.01 2.84 4.49 1.71 
1 1 1 1 1 1 1 1 1 1 1 1 1 1 1 1 1 1 1 1 1 1 1 1 1 1 1 1 1 1 1 1 1 1 1 1 1 1 1 1 
1 1 1 1 1 1 1 1 1 1 1 1 1 1 1 1 1 1 1 1 1 1 1 1 1 1 1 1 1 1 1 1 1 1 1 1 1 1 1 1 
1 1 1 1 1 1 1 1 1 1 1 1 1 1 1 1 1 1 1 1 1 1 1 1 1 1 1 1 1 1 1 1 1 1 1 1 1 1 1 1 
1 1 1 1 1 1 1 1 1 1 1 1 1 1 1 1 1 1 1 1 1 1 1 1 1 1 1 1 1 1 1 1 1 1 1 1 1 1 1 1 
1 1 1 1 1 1 1 1 1 1 1 1 1 1 1 1 1 1 1 1 1 1 1 1 1 1 1 1 1 1 1 1 1 1 1 1 1 1 1 1 
1 1 1 1 1 1 1 1 1 1 1 1 1 1 1 1 1 1 1 1 1 1 1 1 1 1 1 1 1 1 1 1 1 1 1 1 1 1 1 1 
0.01 0.01 0.01 0.01 0.01 0.01 0.01 0.01 0.01 0.01 0.01 0.01 0.01 0.01 0.01 0.01 0.01 0.01 0.01 0.01 0.01 0.01 0.01 0.01 0.01 0.01 0.01 0.01 0.01 0.01 0.01 0.01 0.01 0.01 0.01 0.01 0.01 0.01 0.01 0.01 
0.02 0.02 0.02 0.02 0.02 0.02 0.02 0.02 0.02 0.02 0.02 0.02 0.02 0.02 0.02 0.02 0.02 0.02 0.02 0.02 0.02 0.02 0.02 0.02 0.02 0.02 0.02 0.02 0.02 0.02 0.02 0.02 0.02 0.02 0.02 0.02 0.02 0.02 0.02 0.02 
0.03 0.03 0.03 0.03 0.03 0.03 0.03 0.03 0.03 0.03 0.03 0.03 0.03 0.03 0.03 0.03 0.03 0.03 0.03 0.03 0.03 0.03 0.03 0.03 0.03 0.03 0.03 0.03 0.03 0.03 0.03 0.03 0.03 0.03 0.03 0.03 0.03 0.03 0.03 0.03 
0.04 0.04 0.04 0.04 0.04 0.04 0.04 0.04 0.04 0.04 0.04 0.04 0.04 0.04 0.04 0.04 0.04 0.04 0.04 0.04 0.04 0.04 0.04 0.04 0.04 0.04 0.04 0.04 0.04 0.04 0.04 0.04 0.04 0.04 0.04 0.04 0.04 0.04 0.04 0.04 
0.05 0.05 0.05 0.05 0.05 0.05 0.05 0.05 0.05 0.05 0.05 0.05 0.05 0.05 0.05 0.05 0.05 0.05 0.05 0.05 0.05 0.05 0.05 0.05 0.05 0.05 0.05 0.05 0.05 0.05 0.05 0.05 0.05 0.05 0.05 0.05 0.05 0.05 0.05 0.05 
1 1 1 1 1 1 1 1 1 1 1 1 1 1 1 1 1 1 1 1 1 1 1 1 1 1 1 1 1 1 1 1 1 1 1 1 1 1 1 1 
